; SPDX-License-Identifier: MPL-2.0
; Copyright (c) 2026 The RIINA Authors.
; Auto-generated from 02_FORMAL/coq/domains/AuthenticationProtocols.v (102 validations)
; Generated by scripts/generate-full-stack.py
;
; Translation Validation for AuthenticationProtocols
; Layer 9: Verifies compiler backend preserves formal semantics.
; Each assertion checks source IR ≡ target code for a proven property.

(set-logic QF_LIA)
(set-option :produce-models true)

; IR node representation
(declare-sort IRNode 0)
(declare-sort TargetNode 0)

; pbkdf2_secure: source semantics (matches Coq)
(declare-fun source_pbkdf2_secure () Bool)
(declare-fun target_pbkdf2_secure () Bool)
(assert (= source_pbkdf2_secure target_pbkdf2_secure))

; riina_pbkdf2: source semantics (matches Coq)
(declare-fun source_riina_pbkdf2 () Bool)
(declare-fun target_riina_pbkdf2 () Bool)
(assert (= source_riina_pbkdf2 target_riina_pbkdf2))

; argon2_secure: source semantics (matches Coq)
(declare-fun source_argon2_secure () Bool)
(declare-fun target_argon2_secure () Bool)
(assert (= source_argon2_secure target_argon2_secure))

; riina_argon2: source semantics (matches Coq)
(declare-fun source_riina_argon2 () Bool)
(declare-fun target_riina_argon2 () Bool)
(assert (= source_riina_argon2 target_riina_argon2))

; bcrypt_secure: source semantics (matches Coq)
(declare-fun source_bcrypt_secure () Bool)
(declare-fun target_bcrypt_secure () Bool)
(assert (= source_bcrypt_secure target_bcrypt_secure))

; riina_bcrypt: source semantics (matches Coq)
(declare-fun source_riina_bcrypt () Bool)
(declare-fun target_riina_bcrypt () Bool)
(assert (= source_riina_bcrypt target_riina_bcrypt))

; totp_secure: source semantics (matches Coq)
(declare-fun source_totp_secure () Bool)
(declare-fun target_totp_secure () Bool)
(assert (= source_totp_secure target_totp_secure))

; riina_totp: source semantics (matches Coq)
(declare-fun source_riina_totp () Bool)
(declare-fun target_riina_totp () Bool)
(assert (= source_riina_totp target_riina_totp))

; webauthn_secure: source semantics (matches Coq)
(declare-fun source_webauthn_secure () Bool)
(declare-fun target_webauthn_secure () Bool)
(assert (= source_webauthn_secure target_webauthn_secure))

; riina_webauthn: source semantics (matches Coq)
(declare-fun source_riina_webauthn () Bool)
(declare-fun target_riina_webauthn () Bool)
(assert (= source_riina_webauthn target_riina_webauthn))

; session_token_secure: source semantics (matches Coq)
(declare-fun source_session_token_secure () Bool)
(declare-fun target_session_token_secure () Bool)
(assert (= source_session_token_secure target_session_token_secure))

; riina_session_token: source semantics (matches Coq)
(declare-fun source_riina_session_token () Bool)
(declare-fun target_riina_session_token () Bool)
(assert (= source_riina_session_token target_riina_session_token))

; oauth2_secure: source semantics (matches Coq)
(declare-fun source_oauth2_secure () Bool)
(declare-fun target_oauth2_secure () Bool)
(assert (= source_oauth2_secure target_oauth2_secure))

; riina_oauth2: source semantics (matches Coq)
(declare-fun source_riina_oauth2 () Bool)
(declare-fun target_riina_oauth2 () Bool)
(assert (= source_riina_oauth2 target_riina_oauth2))

; oidc_secure: source semantics (matches Coq)
(declare-fun source_oidc_secure () Bool)
(declare-fun target_oidc_secure () Bool)
(assert (= source_oidc_secure target_oidc_secure))

; riina_oidc: source semantics (matches Coq)
(declare-fun source_riina_oidc () Bool)
(declare-fun target_riina_oidc () Bool)
(assert (= source_riina_oidc target_riina_oidc))

; challenge_secure: source semantics (matches Coq)
(declare-fun source_challenge_secure () Bool)
(declare-fun target_challenge_secure () Bool)
(assert (= source_challenge_secure target_challenge_secure))

; riina_challenge: source semantics (matches Coq)
(declare-fun source_riina_challenge () Bool)
(declare-fun target_riina_challenge () Bool)
(assert (= source_riina_challenge target_riina_challenge))

; replay_prevention_secure: source semantics (matches Coq)
(declare-fun source_replay_prevention_secure () Bool)
(declare-fun target_replay_prevention_secure () Bool)
(assert (= source_replay_prevention_secure target_replay_prevention_secure))

; riina_nonce_tracker: source semantics (matches Coq)
(declare-fun source_riina_nonce_tracker () Bool)
(declare-fun target_riina_nonce_tracker () Bool)
(assert (= source_riina_nonce_tracker target_riina_nonce_tracker))

; password_secure: source semantics (matches Coq)
(declare-fun source_password_secure () Bool)
(declare-fun target_password_secure () Bool)
(assert (= source_password_secure target_password_secure))

; mfa_secure: source semantics (matches Coq)
(declare-fun source_mfa_secure () Bool)
(declare-fun target_mfa_secure () Bool)
(assert (= source_mfa_secure target_mfa_secure))

; session_secure: source semantics (matches Coq)
(declare-fun source_session_secure () Bool)
(declare-fun target_session_secure () Bool)
(assert (= source_session_secure target_session_secure))

; auth_complete: source semantics (matches Coq)
(declare-fun source_auth_complete () Bool)
(declare-fun target_auth_complete () Bool)
(assert (= source_auth_complete target_auth_complete))

; riina_pwd: source semantics (matches Coq)
(declare-fun source_riina_pwd () Bool)
(declare-fun target_riina_pwd () Bool)
(assert (= source_riina_pwd target_riina_pwd))

; riina_mfa: source semantics (matches Coq)
(declare-fun source_riina_mfa () Bool)
(declare-fun target_riina_mfa () Bool)
(assert (= source_riina_mfa target_riina_mfa))

; riina_session: source semantics (matches Coq)
(declare-fun source_riina_session () Bool)
(declare-fun target_riina_session () Bool)
(assert (= source_riina_session target_riina_session))

; riina_auth: source semantics (matches Coq)
(declare-fun source_riina_auth () Bool)
(declare-fun target_riina_auth () Bool)
(assert (= source_riina_auth target_riina_auth))

; andb_true_iff: translation preserves property (matches Coq: Lemma)
(declare-fun source_andb_true_iff () Bool)
(declare-fun target_andb_true_iff () Bool)
(assert (= source_andb_true_iff target_andb_true_iff))

; andb3_true_iff: translation preserves property (matches Coq: Lemma)
(declare-fun source_andb3_true_iff () Bool)
(declare-fun target_andb3_true_iff () Bool)
(assert (= source_andb3_true_iff target_andb3_true_iff))

; negb_true_iff: translation preserves property (matches Coq: Lemma)
(declare-fun source_negb_true_iff () Bool)
(declare-fun target_negb_true_iff () Bool)
(assert (= source_negb_true_iff target_negb_true_iff))

; leb_le: translation preserves property (matches Coq: Lemma)
(declare-fun source_leb_le () Bool)
(declare-fun target_leb_le () Bool)
(assert (= source_leb_le target_leb_le))

; ltb_lt: translation preserves property (matches Coq: Lemma)
(declare-fun source_ltb_lt () Bool)
(declare-fun target_ltb_lt () Bool)
(assert (= source_ltb_lt target_ltb_lt))

; AUTH_001: translation preserves property (matches Coq: Theorem)
(declare-fun source_AUTH_001 () Bool)
(declare-fun target_AUTH_001 () Bool)
(assert (= source_AUTH_001 target_AUTH_001))

; AUTH_002: translation preserves property (matches Coq: Theorem)
(declare-fun source_AUTH_002 () Bool)
(declare-fun target_AUTH_002 () Bool)
(assert (= source_AUTH_002 target_AUTH_002))

; AUTH_003: translation preserves property (matches Coq: Theorem)
(declare-fun source_AUTH_003 () Bool)
(declare-fun target_AUTH_003 () Bool)
(assert (= source_AUTH_003 target_AUTH_003))

; AUTH_004: translation preserves property (matches Coq: Theorem)
(declare-fun source_AUTH_004 () Bool)
(declare-fun target_AUTH_004 () Bool)
(assert (= source_AUTH_004 target_AUTH_004))

; AUTH_005: translation preserves property (matches Coq: Theorem)
(declare-fun source_AUTH_005 () Bool)
(declare-fun target_AUTH_005 () Bool)
(assert (= source_AUTH_005 target_AUTH_005))

; AUTH_006: translation preserves property (matches Coq: Theorem)
(declare-fun source_AUTH_006 () Bool)
(declare-fun target_AUTH_006 () Bool)
(assert (= source_AUTH_006 target_AUTH_006))

; AUTH_007: translation preserves property (matches Coq: Theorem)
(declare-fun source_AUTH_007 () Bool)
(declare-fun target_AUTH_007 () Bool)
(assert (= source_AUTH_007 target_AUTH_007))

; AUTH_008: translation preserves property (matches Coq: Theorem)
(declare-fun source_AUTH_008 () Bool)
(declare-fun target_AUTH_008 () Bool)
(assert (= source_AUTH_008 target_AUTH_008))

; AUTH_009: translation preserves property (matches Coq: Theorem)
(declare-fun source_AUTH_009 () Bool)
(declare-fun target_AUTH_009 () Bool)
(assert (= source_AUTH_009 target_AUTH_009))

; AUTH_010: translation preserves property (matches Coq: Theorem)
(declare-fun source_AUTH_010 () Bool)
(declare-fun target_AUTH_010 () Bool)
(assert (= source_AUTH_010 target_AUTH_010))

; AUTH_011: translation preserves property (matches Coq: Theorem)
(declare-fun source_AUTH_011 () Bool)
(declare-fun target_AUTH_011 () Bool)
(assert (= source_AUTH_011 target_AUTH_011))

; AUTH_012: translation preserves property (matches Coq: Theorem)
(declare-fun source_AUTH_012 () Bool)
(declare-fun target_AUTH_012 () Bool)
(assert (= source_AUTH_012 target_AUTH_012))

; AUTH_013: translation preserves property (matches Coq: Theorem)
(declare-fun source_AUTH_013 () Bool)
(declare-fun target_AUTH_013 () Bool)
(assert (= source_AUTH_013 target_AUTH_013))

; AUTH_014: translation preserves property (matches Coq: Theorem)
(declare-fun source_AUTH_014 () Bool)
(declare-fun target_AUTH_014 () Bool)
(assert (= source_AUTH_014 target_AUTH_014))

; AUTH_015: translation preserves property (matches Coq: Theorem)
(declare-fun source_AUTH_015 () Bool)
(declare-fun target_AUTH_015 () Bool)
(assert (= source_AUTH_015 target_AUTH_015))

; AUTH_016: translation preserves property (matches Coq: Theorem)
(declare-fun source_AUTH_016 () Bool)
(declare-fun target_AUTH_016 () Bool)
(assert (= source_AUTH_016 target_AUTH_016))

; AUTH_017: translation preserves property (matches Coq: Theorem)
(declare-fun source_AUTH_017 () Bool)
(declare-fun target_AUTH_017 () Bool)
(assert (= source_AUTH_017 target_AUTH_017))

; AUTH_018: translation preserves property (matches Coq: Theorem)
(declare-fun source_AUTH_018 () Bool)
(declare-fun target_AUTH_018 () Bool)
(assert (= source_AUTH_018 target_AUTH_018))

; AUTH_019: translation preserves property (matches Coq: Theorem)
(declare-fun source_AUTH_019 () Bool)
(declare-fun target_AUTH_019 () Bool)
(assert (= source_AUTH_019 target_AUTH_019))

; AUTH_020: translation preserves property (matches Coq: Theorem)
(declare-fun source_AUTH_020 () Bool)
(declare-fun target_AUTH_020 () Bool)
(assert (= source_AUTH_020 target_AUTH_020))

; AUTH_021: translation preserves property (matches Coq: Theorem)
(declare-fun source_AUTH_021 () Bool)
(declare-fun target_AUTH_021 () Bool)
(assert (= source_AUTH_021 target_AUTH_021))

; AUTH_022: translation preserves property (matches Coq: Theorem)
(declare-fun source_AUTH_022 () Bool)
(declare-fun target_AUTH_022 () Bool)
(assert (= source_AUTH_022 target_AUTH_022))

; AUTH_023: translation preserves property (matches Coq: Theorem)
(declare-fun source_AUTH_023 () Bool)
(declare-fun target_AUTH_023 () Bool)
(assert (= source_AUTH_023 target_AUTH_023))

; AUTH_024: translation preserves property (matches Coq: Theorem)
(declare-fun source_AUTH_024 () Bool)
(declare-fun target_AUTH_024 () Bool)
(assert (= source_AUTH_024 target_AUTH_024))

; AUTH_025_complete: translation preserves property (matches Coq: Theorem)
(declare-fun source_AUTH_025_complete () Bool)
(declare-fun target_AUTH_025_complete () Bool)
(assert (= source_AUTH_025_complete target_AUTH_025_complete))

; PBKDF2_001_riina_secure: translation preserves property (matches Coq: Theorem)
(declare-fun source_PBKDF2_001_riina_secure () Bool)
(declare-fun target_PBKDF2_001_riina_secure () Bool)
(assert (= source_PBKDF2_001_riina_secure target_PBKDF2_001_riina_secure))

; PBKDF2_002_sufficient_iterations: translation preserves property (matches Coq: Theorem)
(declare-fun source_PBKDF2_002_sufficient_iterations () Bool)
(declare-fun target_PBKDF2_002_sufficient_iterations () Bool)
(assert (= source_PBKDF2_002_sufficient_iterations target_PBKDF2_002_sufficient_iterations))

; PBKDF2_003_sufficient_salt: translation preserves property (matches Coq: Theorem)
(declare-fun source_PBKDF2_003_sufficient_salt () Bool)
(declare-fun target_PBKDF2_003_sufficient_salt () Bool)
(assert (= source_PBKDF2_003_sufficient_salt target_PBKDF2_003_sufficient_salt))

; PBKDF2_004_sufficient_output: translation preserves property (matches Coq: Theorem)
(declare-fun source_PBKDF2_004_sufficient_output () Bool)
(declare-fun target_PBKDF2_004_sufficient_output () Bool)
(assert (= source_PBKDF2_004_sufficient_output target_PBKDF2_004_sufficient_output))

; PBKDF2_005_approved_algorithm: translation preserves property (matches Coq: Theorem)
(declare-fun source_PBKDF2_005_approved_algorithm () Bool)
(declare-fun target_PBKDF2_005_approved_algorithm () Bool)
(assert (= source_PBKDF2_005_approved_algorithm target_PBKDF2_005_approved_algorithm))

; PBKDF2_006_work_factor: translation preserves property (matches Coq: Theorem)
(declare-fun source_PBKDF2_006_work_factor () Bool)
(declare-fun target_PBKDF2_006_work_factor () Bool)
(assert (= source_PBKDF2_006_work_factor target_PBKDF2_006_work_factor))

; ARGON2_001_riina_secure: translation preserves property (matches Coq: Theorem)
(declare-fun source_ARGON2_001_riina_secure () Bool)
(declare-fun target_ARGON2_001_riina_secure () Bool)
(assert (= source_ARGON2_001_riina_secure target_ARGON2_001_riina_secure))

; ARGON2_002_sufficient_time: translation preserves property (matches Coq: Theorem)
(declare-fun source_ARGON2_002_sufficient_time () Bool)
(declare-fun target_ARGON2_002_sufficient_time () Bool)
(assert (= source_ARGON2_002_sufficient_time target_ARGON2_002_sufficient_time))

; ARGON2_003_sufficient_memory: translation preserves property (matches Coq: Theorem)
(declare-fun source_ARGON2_003_sufficient_memory () Bool)
(declare-fun target_ARGON2_003_sufficient_memory () Bool)
(assert (= source_ARGON2_003_sufficient_memory target_ARGON2_003_sufficient_memory))

; ARGON2_004_argon2id_variant: translation preserves property (matches Coq: Theorem)
(declare-fun source_ARGON2_004_argon2id_variant () Bool)
(declare-fun target_ARGON2_004_argon2id_variant () Bool)
(assert (= source_ARGON2_004_argon2id_variant target_ARGON2_004_argon2id_variant))

; ARGON2_005_memory_hardness: translation preserves property (matches Coq: Theorem)
(declare-fun source_ARGON2_005_memory_hardness () Bool)
(declare-fun target_ARGON2_005_memory_hardness () Bool)
(assert (= source_ARGON2_005_memory_hardness target_ARGON2_005_memory_hardness))

; ARGON2_006_parallelism: translation preserves property (matches Coq: Theorem)
(declare-fun source_ARGON2_006_parallelism () Bool)
(declare-fun target_ARGON2_006_parallelism () Bool)
(assert (= source_ARGON2_006_parallelism target_ARGON2_006_parallelism))

; BCRYPT_001_riina_secure: translation preserves property (matches Coq: Theorem)
(declare-fun source_BCRYPT_001_riina_secure () Bool)
(declare-fun target_BCRYPT_001_riina_secure () Bool)
(assert (= source_BCRYPT_001_riina_secure target_BCRYPT_001_riina_secure))

; BCRYPT_002_sufficient_cost: translation preserves property (matches Coq: Theorem)
(declare-fun source_BCRYPT_002_sufficient_cost () Bool)
(declare-fun target_BCRYPT_002_sufficient_cost () Bool)
(assert (= source_BCRYPT_002_sufficient_cost target_BCRYPT_002_sufficient_cost))

; BCRYPT_003_fixed_salt: translation preserves property (matches Coq: Theorem)
(declare-fun source_BCRYPT_003_fixed_salt () Bool)
(declare-fun target_BCRYPT_003_fixed_salt () Bool)
(assert (= source_BCRYPT_003_fixed_salt target_BCRYPT_003_fixed_salt))

; BCRYPT_004_fixed_output: translation preserves property (matches Coq: Theorem)
(declare-fun source_BCRYPT_004_fixed_output () Bool)
(declare-fun target_BCRYPT_004_fixed_output () Bool)
(assert (= source_BCRYPT_004_fixed_output target_BCRYPT_004_fixed_output))

; BCRYPT_005_exponential_work: translation preserves property (matches Coq: Theorem)
(declare-fun source_BCRYPT_005_exponential_work () Bool)
(declare-fun target_BCRYPT_005_exponential_work () Bool)
(assert (= source_BCRYPT_005_exponential_work target_BCRYPT_005_exponential_work))

; TOTP_001_riina_secure: translation preserves property (matches Coq: Theorem)
(declare-fun source_TOTP_001_riina_secure () Bool)
(declare-fun target_TOTP_001_riina_secure () Bool)
(assert (= source_TOTP_001_riina_secure target_TOTP_001_riina_secure))

; TOTP_002_sufficient_secret: translation preserves property (matches Coq: Theorem)
(declare-fun source_TOTP_002_sufficient_secret () Bool)
(declare-fun target_TOTP_002_sufficient_secret () Bool)
(assert (= source_TOTP_002_sufficient_secret target_TOTP_002_sufficient_secret))

; TOTP_003_sufficient_digits: translation preserves property (matches Coq: Theorem)
(declare-fun source_TOTP_003_sufficient_digits () Bool)
(declare-fun target_TOTP_003_sufficient_digits () Bool)
(assert (= source_TOTP_003_sufficient_digits target_TOTP_003_sufficient_digits))

; TOTP_004_standard_period: translation preserves property (matches Coq: Theorem)
(declare-fun source_TOTP_004_standard_period () Bool)
(declare-fun target_TOTP_004_standard_period () Bool)
(assert (= source_TOTP_004_standard_period target_TOTP_004_standard_period))

; TOTP_005_limited_drift: translation preserves property (matches Coq: Theorem)
(declare-fun source_TOTP_005_limited_drift () Bool)
(declare-fun target_TOTP_005_limited_drift () Bool)
(assert (= source_TOTP_005_limited_drift target_TOTP_005_limited_drift))

; TOTP_006_brute_force_resistant: translation preserves property (matches Coq: Theorem)
(declare-fun source_TOTP_006_brute_force_resistant () Bool)
(declare-fun target_TOTP_006_brute_force_resistant () Bool)
(assert (= source_TOTP_006_brute_force_resistant target_TOTP_006_brute_force_resistant))

; WEBAUTHN_001_riina_secure: translation preserves property (matches Coq: Theorem)
(declare-fun source_WEBAUTHN_001_riina_secure () Bool)
(declare-fun target_WEBAUTHN_001_riina_secure () Bool)
(assert (= source_WEBAUTHN_001_riina_secure target_WEBAUTHN_001_riina_secure))

; WEBAUTHN_002_user_verification: translation preserves property (matches Coq: Theorem)
(declare-fun source_WEBAUTHN_002_user_verification () Bool)
(declare-fun target_WEBAUTHN_002_user_verification () Bool)
(assert (= source_WEBAUTHN_002_user_verification target_WEBAUTHN_002_user_verification))

; WEBAUTHN_003_challenge_entropy: translation preserves property (matches Coq: Theorem)
(declare-fun source_WEBAUTHN_003_challenge_entropy () Bool)
(declare-fun target_WEBAUTHN_003_challenge_entropy () Bool)
(assert (= source_WEBAUTHN_003_challenge_entropy target_WEBAUTHN_003_challenge_entropy))

; WEBAUTHN_004_timeout_range: translation preserves property (matches Coq: Theorem)
(declare-fun source_WEBAUTHN_004_timeout_range () Bool)
(declare-fun target_WEBAUTHN_004_timeout_range () Bool)
(assert (= source_WEBAUTHN_004_timeout_range target_WEBAUTHN_004_timeout_range))

; WEBAUTHN_005_impersonation_prevention: translation preserves property (matches Coq: Theorem)
(declare-fun source_WEBAUTHN_005_impersonation_prevention () Bool)
(declare-fun target_WEBAUTHN_005_impersonation_prevention () Bool)
(assert (= source_WEBAUTHN_005_impersonation_prevention target_WEBAUTHN_005_impersonation_prevention))

; SESSION_001_riina_secure: translation preserves property (matches Coq: Theorem)
(declare-fun source_SESSION_001_riina_secure () Bool)
(declare-fun target_SESSION_001_riina_secure () Bool)
(assert (= source_SESSION_001_riina_secure target_SESSION_001_riina_secure))

; SESSION_002_sufficient_entropy: translation preserves property (matches Coq: Theorem)
(declare-fun source_SESSION_002_sufficient_entropy () Bool)
(declare-fun target_SESSION_002_sufficient_entropy () Bool)
(assert (= source_SESSION_002_sufficient_entropy target_SESSION_002_sufficient_entropy))

; SESSION_003_rotation_enabled: translation preserves property (matches Coq: Theorem)
(declare-fun source_SESSION_003_rotation_enabled () Bool)
(declare-fun target_SESSION_003_rotation_enabled () Bool)
(assert (= source_SESSION_003_rotation_enabled target_SESSION_003_rotation_enabled))

; SESSION_004_binding_enabled: translation preserves property (matches Coq: Theorem)
(declare-fun source_SESSION_004_binding_enabled () Bool)
(declare-fun target_SESSION_004_binding_enabled () Bool)
(assert (= source_SESSION_004_binding_enabled target_SESSION_004_binding_enabled))

; SESSION_005_secure_flag: translation preserves property (matches Coq: Theorem)
(declare-fun source_SESSION_005_secure_flag () Bool)
(declare-fun target_SESSION_005_secure_flag () Bool)
(assert (= source_SESSION_005_secure_flag target_SESSION_005_secure_flag))

; SESSION_006_httponly_flag: translation preserves property (matches Coq: Theorem)
(declare-fun source_SESSION_006_httponly_flag () Bool)
(declare-fun target_SESSION_006_httponly_flag () Bool)
(assert (= source_SESSION_006_httponly_flag target_SESSION_006_httponly_flag))

; SESSION_007_samesite_protection: translation preserves property (matches Coq: Theorem)
(declare-fun source_SESSION_007_samesite_protection () Bool)
(declare-fun target_SESSION_007_samesite_protection () Bool)
(assert (= source_SESSION_007_samesite_protection target_SESSION_007_samesite_protection))

; SESSION_008_guessing_resistant: translation preserves property (matches Coq: Theorem)
(declare-fun source_SESSION_008_guessing_resistant () Bool)
(declare-fun target_SESSION_008_guessing_resistant () Bool)
(assert (= source_SESSION_008_guessing_resistant target_SESSION_008_guessing_resistant))

; OAUTH2_001_riina_secure: translation preserves property (matches Coq: Theorem)
(declare-fun source_OAUTH2_001_riina_secure () Bool)
(declare-fun target_OAUTH2_001_riina_secure () Bool)
(assert (= source_OAUTH2_001_riina_secure target_OAUTH2_001_riina_secure))

; OAUTH2_002_pkce_required: translation preserves property (matches Coq: Theorem)
(declare-fun source_OAUTH2_002_pkce_required () Bool)
(declare-fun target_OAUTH2_002_pkce_required () Bool)
(assert (= source_OAUTH2_002_pkce_required target_OAUTH2_002_pkce_required))

; OAUTH2_003_state_required: translation preserves property (matches Coq: Theorem)
(declare-fun source_OAUTH2_003_state_required () Bool)
(declare-fun target_OAUTH2_003_state_required () Bool)
(assert (= source_OAUTH2_003_state_required target_OAUTH2_003_state_required))

; OAUTH2_004_code_entropy: translation preserves property (matches Coq: Theorem)
(declare-fun source_OAUTH2_004_code_entropy () Bool)
(declare-fun target_OAUTH2_004_code_entropy () Bool)
(assert (= source_OAUTH2_004_code_entropy target_OAUTH2_004_code_entropy))

; OAUTH2_005_short_code_expiry: translation preserves property (matches Coq: Theorem)
(declare-fun source_OAUTH2_005_short_code_expiry () Bool)
(declare-fun target_OAUTH2_005_short_code_expiry () Bool)
(assert (= source_OAUTH2_005_short_code_expiry target_OAUTH2_005_short_code_expiry))

; OAUTH2_006_refresh_rotation: translation preserves property (matches Coq: Theorem)
(declare-fun source_OAUTH2_006_refresh_rotation () Bool)
(declare-fun target_OAUTH2_006_refresh_rotation () Bool)
(assert (= source_OAUTH2_006_refresh_rotation target_OAUTH2_006_refresh_rotation))

; OAUTH2_007_code_interception_prevention: translation preserves property (matches Coq: Theorem)
(declare-fun source_OAUTH2_007_code_interception_prevention () Bool)
(declare-fun target_OAUTH2_007_code_interception_prevention () Bool)
(assert (= source_OAUTH2_007_code_interception_prevention target_OAUTH2_007_code_interception_prevention))

; OIDC_001_riina_secure: translation preserves property (matches Coq: Theorem)
(declare-fun source_OIDC_001_riina_secure () Bool)
(declare-fun target_OIDC_001_riina_secure () Bool)
(assert (= source_OIDC_001_riina_secure target_OIDC_001_riina_secure))

; OIDC_002_secure_base: translation preserves property (matches Coq: Theorem)
(declare-fun source_OIDC_002_secure_base () Bool)
(declare-fun target_OIDC_002_secure_base () Bool)
(assert (= source_OIDC_002_secure_base target_OIDC_002_secure_base))

; OIDC_003_strong_signing: translation preserves property (matches Coq: Theorem)
(declare-fun source_OIDC_003_strong_signing () Bool)
(declare-fun target_OIDC_003_strong_signing () Bool)
(assert (= source_OIDC_003_strong_signing target_OIDC_003_strong_signing))

; OIDC_004_short_id_expiry: translation preserves property (matches Coq: Theorem)
(declare-fun source_OIDC_004_short_id_expiry () Bool)
(declare-fun target_OIDC_004_short_id_expiry () Bool)
(assert (= source_OIDC_004_short_id_expiry target_OIDC_004_short_id_expiry))

; OIDC_005_claims_verified: translation preserves property (matches Coq: Theorem)
(declare-fun source_OIDC_005_claims_verified () Bool)
(declare-fun target_OIDC_005_claims_verified () Bool)
(assert (= source_OIDC_005_claims_verified target_OIDC_005_claims_verified))

; OIDC_006_inherits_pkce: translation preserves property (matches Coq: Theorem)
(declare-fun source_OIDC_006_inherits_pkce () Bool)
(declare-fun target_OIDC_006_inherits_pkce () Bool)
(assert (= source_OIDC_006_inherits_pkce target_OIDC_006_inherits_pkce))

; CHALLENGE_001_riina_secure: translation preserves property (matches Coq: Theorem)
(declare-fun source_CHALLENGE_001_riina_secure () Bool)
(declare-fun target_CHALLENGE_001_riina_secure () Bool)
(assert (= source_CHALLENGE_001_riina_secure target_CHALLENGE_001_riina_secure))

; CHALLENGE_002_sufficient_entropy: translation preserves property (matches Coq: Theorem)
(declare-fun source_CHALLENGE_002_sufficient_entropy () Bool)
(declare-fun target_CHALLENGE_002_sufficient_entropy () Bool)
(assert (= source_CHALLENGE_002_sufficient_entropy target_CHALLENGE_002_sufficient_entropy))

; CHALLENGE_003_short_expiry: translation preserves property (matches Coq: Theorem)
(declare-fun source_CHALLENGE_003_short_expiry () Bool)
(declare-fun target_CHALLENGE_003_short_expiry () Bool)
(assert (= source_CHALLENGE_003_short_expiry target_CHALLENGE_003_short_expiry))

; CHALLENGE_004_single_use: translation preserves property (matches Coq: Theorem)
(declare-fun source_CHALLENGE_004_single_use () Bool)
(declare-fun target_CHALLENGE_004_single_use () Bool)
(assert (= source_CHALLENGE_004_single_use target_CHALLENGE_004_single_use))

; CHALLENGE_005_session_bound: translation preserves property (matches Coq: Theorem)
(declare-fun source_CHALLENGE_005_session_bound () Bool)
(declare-fun target_CHALLENGE_005_session_bound () Bool)
(assert (= source_CHALLENGE_005_session_bound target_CHALLENGE_005_session_bound))

; CHALLENGE_006_guessing_resistant: translation preserves property (matches Coq: Theorem)
(declare-fun source_CHALLENGE_006_guessing_resistant () Bool)
(declare-fun target_CHALLENGE_006_guessing_resistant () Bool)
(assert (= source_CHALLENGE_006_guessing_resistant target_CHALLENGE_006_guessing_resistant))

; CHALLENGE_007_replay_prevention: translation preserves property (matches Coq: Theorem)
(declare-fun source_CHALLENGE_007_replay_prevention () Bool)
(declare-fun target_CHALLENGE_007_replay_prevention () Bool)
(assert (= source_CHALLENGE_007_replay_prevention target_CHALLENGE_007_replay_prevention))

; REPLAY_001_riina_secure: translation preserves property (matches Coq: Theorem)
(declare-fun source_REPLAY_001_riina_secure () Bool)
(declare-fun target_REPLAY_001_riina_secure () Bool)
(assert (= source_REPLAY_001_riina_secure target_REPLAY_001_riina_secure))

; REPLAY_002_sufficient_nonce: translation preserves property (matches Coq: Theorem)
(declare-fun source_REPLAY_002_sufficient_nonce () Bool)
(declare-fun target_REPLAY_002_sufficient_nonce () Bool)
(assert (= source_REPLAY_002_sufficient_nonce target_REPLAY_002_sufficient_nonce))

; REPLAY_003_sufficient_window: translation preserves property (matches Coq: Theorem)
(declare-fun source_REPLAY_003_sufficient_window () Bool)
(declare-fun target_REPLAY_003_sufficient_window () Bool)
(assert (= source_REPLAY_003_sufficient_window target_REPLAY_003_sufficient_window))

; REPLAY_004_bounded_timestamp: translation preserves property (matches Coq: Theorem)
(declare-fun source_REPLAY_004_bounded_timestamp () Bool)
(declare-fun target_REPLAY_004_bounded_timestamp () Bool)
(assert (= source_REPLAY_004_bounded_timestamp target_REPLAY_004_bounded_timestamp))

; REPLAY_005_window_prevents_replay: translation preserves property (matches Coq: Theorem)
(declare-fun source_REPLAY_005_window_prevents_replay () Bool)
(declare-fun target_REPLAY_005_window_prevents_replay () Bool)
(assert (= source_REPLAY_005_window_prevents_replay target_REPLAY_005_window_prevents_replay))

; REPLAY_006_limited_attack_window: translation preserves property (matches Coq: Theorem)
(declare-fun source_REPLAY_006_limited_attack_window () Bool)
(declare-fun target_REPLAY_006_limited_attack_window () Bool)
(assert (= source_REPLAY_006_limited_attack_window target_REPLAY_006_limited_attack_window))

; COMPOSITE_001_password_hashing_secure: translation preserves property (matches Coq: Theorem)
(declare-fun source_COMPOSITE_001_password_hashing_secure () Bool)
(declare-fun target_COMPOSITE_001_password_hashing_secure () Bool)
(assert (= source_COMPOSITE_001_password_hashing_secure target_COMPOSITE_001_password_hashing_secure))

; COMPOSITE_002_mfa_complete: translation preserves property (matches Coq: Theorem)
(declare-fun source_COMPOSITE_002_mfa_complete () Bool)
(declare-fun target_COMPOSITE_002_mfa_complete () Bool)
(assert (= source_COMPOSITE_002_mfa_complete target_COMPOSITE_002_mfa_complete))

; COMPOSITE_003_session_complete: translation preserves property (matches Coq: Theorem)
(declare-fun source_COMPOSITE_003_session_complete () Bool)
(declare-fun target_COMPOSITE_003_session_complete () Bool)
(assert (= source_COMPOSITE_003_session_complete target_COMPOSITE_003_session_complete))

; COMPOSITE_004_challenge_complete: translation preserves property (matches Coq: Theorem)
(declare-fun source_COMPOSITE_004_challenge_complete () Bool)
(declare-fun target_COMPOSITE_004_challenge_complete () Bool)
(assert (= source_COMPOSITE_004_challenge_complete target_COMPOSITE_004_challenge_complete))

; COMPOSITE_005_riina_auth_complete: translation preserves property (matches Coq: Theorem)
(declare-fun source_COMPOSITE_005_riina_auth_complete () Bool)
(declare-fun target_COMPOSITE_005_riina_auth_complete () Bool)
(assert (= source_COMPOSITE_005_riina_auth_complete target_COMPOSITE_005_riina_auth_complete))

; COMPOSITE_006_auth_implies_all: translation preserves property (matches Coq: Theorem)
(declare-fun source_COMPOSITE_006_auth_implies_all () Bool)
(declare-fun target_COMPOSITE_006_auth_implies_all () Bool)
(assert (= source_COMPOSITE_006_auth_implies_all target_COMPOSITE_006_auth_implies_all))

; TOKEN_001_valid_not_expired: translation preserves property (matches Coq: Theorem)
(declare-fun source_TOKEN_001_valid_not_expired () Bool)
(declare-fun target_TOKEN_001_valid_not_expired () Bool)
(assert (= source_TOKEN_001_valid_not_expired target_TOKEN_001_valid_not_expired))

; TOKEN_002_valid_not_invalid: translation preserves property (matches Coq: Theorem)
(declare-fun source_TOKEN_002_valid_not_invalid () Bool)
(declare-fun target_TOKEN_002_valid_not_invalid () Bool)
(assert (= source_TOKEN_002_valid_not_invalid target_TOKEN_002_valid_not_invalid))

; TOKEN_003_valid_not_revoked: translation preserves property (matches Coq: Theorem)
(declare-fun source_TOKEN_003_valid_not_revoked () Bool)
(declare-fun target_TOKEN_003_valid_not_revoked () Bool)
(assert (= source_TOKEN_003_valid_not_revoked target_TOKEN_003_valid_not_revoked))

; TOKEN_004_expired_not_valid: translation preserves property (matches Coq: Theorem)
(declare-fun source_TOKEN_004_expired_not_valid () Bool)
(declare-fun target_TOKEN_004_expired_not_valid () Bool)
(assert (= source_TOKEN_004_expired_not_valid target_TOKEN_004_expired_not_valid))

; Verify all translation validations are satisfiable
(check-sat)
(exit)
